POSCAR                                  
   1.00000000000000     
     7.0019999999999980    0.0000000000000000    0.0000000000000000
    -3.5009999999999990    6.0639098772986371    0.0000000000000000
     0.0000000000000000    0.0000000000000000   40.0000000000000000
   Cr   I 
     2     6
Direct
  0.0000000000000000 -0.0000000000000000  0.5000000000000000
  0.3333333333333357  0.6666666666666643  0.5000000000000000
  0.3066171398074465  0.9732838064741107  0.4609632755555407
  0.0267161935258893  0.3333333333333357  0.4609632755555407
  0.3066171398074465  0.3333333333333357  0.5390367244444592
  0.6666666666666643  0.9732838064741107  0.5390367244444592
  0.0267161935258893  0.6933828601925536  0.5390367244444592
  0.6666666666666643  0.6933828601925536  0.4609632755555407
 
  0.00000000E+00  0.00000000E+00  0.00000000E+00
  0.00000000E+00  0.00000000E+00  0.00000000E+00
  0.00000000E+00  0.00000000E+00  0.00000000E+00
  0.00000000E+00  0.00000000E+00  0.00000000E+00
  0.00000000E+00  0.00000000E+00  0.00000000E+00
  0.00000000E+00  0.00000000E+00  0.00000000E+00
  0.00000000E+00  0.00000000E+00  0.00000000E+00
  0.00000000E+00  0.00000000E+00  0.00000000E+00
