POSCAR                                  
   1.00000000000000     
     7.0019999999999980    0.0000000000000000    0.0000000000000000
    -3.5009999999999990    6.0639098772986371    0.0000000000000000
     0.0000000000000000    0.0000000000000000   40.0000000000000000
   Cr   I 
     2     6
Direct
  0.0000000000000000  0.0000000000000000  0.5000000000000000
  0.3333333333333357  0.6666666666666643  0.5000000000000000
  0.3065679716111384  0.9732346382778028  0.4609633252737407
  0.0267653617221972  0.3333333333333357  0.4609633252737407
  0.3065679716111384  0.3333333333333357  0.5390366747262594
  0.6666666666666643  0.9732346382778028  0.5390366747262594
  0.0267653617221972  0.6934320283888615  0.5390366747262594
  0.6666666666666643  0.6934320283888615  0.4609633252737407
 
  0.00000000E+00  0.00000000E+00  0.00000000E+00
  0.00000000E+00  0.00000000E+00  0.00000000E+00
  0.00000000E+00  0.00000000E+00  0.00000000E+00
  0.00000000E+00  0.00000000E+00  0.00000000E+00
  0.00000000E+00  0.00000000E+00  0.00000000E+00
  0.00000000E+00  0.00000000E+00  0.00000000E+00
  0.00000000E+00  0.00000000E+00  0.00000000E+00
  0.00000000E+00  0.00000000E+00  0.00000000E+00
