monolayer CrI3 (R3 structure)
 1.0000000000000000
     7.0000000000000000  0.0000000000000000  0.0000000000000000
    -3.5000000000000000  6.0621778264910704  0.0000000000000000
     0.0000000000000000  0.0000000000000000 40.0000000000000000
  Cr   I
   2   6
Cartesian
 0.0000000000000000  0.0000000000000000 20.0000000000000000
 0.0000000000000000  4.0414518843273806 20.0000000000000000
 2.3333333333333335  0.0000000000000000 18.4844555433772335
-1.1666666666666667  2.0207259421636903 18.4844555433772335
 1.1666666666666667  2.0207259421636903 21.5155444566227665
 4.6666666666666670  0.0000000000000000 21.5155444566227665
-2.3333333333333335  4.0414518843273806 21.5155444566227665
 2.3333333333333335  4.0414518843273806 18.4844555433772335
