monolayer CrI3 (R3 structure)           
   1.00000000000000     
     7.0000000000000000    0.0000000000000000    0.0000000000000000
    -3.5000000000000000    6.0621778264910704    0.0000000000000000
     0.0000000000000000    0.0000000000000000   40.0000000000000000
   Cr   I 
     2     6
Direct
 -0.0000000000000000 -0.0000000000000000  0.4999994635183104
  0.3333333333333357  0.6666666666666643  0.5000005364816896
  0.3072172286969362 -0.0261134102408619  0.4608716994061555
  0.0261134102408619  0.3333306389377980  0.4608716994061555
  0.3072199230924739  0.3333360277288734  0.5391283005938441
  0.6666639722711266 -0.0261161046363996  0.5391283005938441
  0.0261161046363996  0.6927800769075264  0.5391283005938441
  0.6666693610622020  0.6927827713030641  0.4608716994061555
 
  0.00000000E+00  0.00000000E+00  0.00000000E+00
  0.00000000E+00  0.00000000E+00  0.00000000E+00
  0.00000000E+00  0.00000000E+00  0.00000000E+00
  0.00000000E+00  0.00000000E+00  0.00000000E+00
  0.00000000E+00  0.00000000E+00  0.00000000E+00
  0.00000000E+00  0.00000000E+00  0.00000000E+00
  0.00000000E+00  0.00000000E+00  0.00000000E+00
  0.00000000E+00  0.00000000E+00  0.00000000E+00
